n = 25
Q1 = [0 21 0 0 28 36 0 0 0 0 11 0 0 0 0 7 35 0 49 35 17 9 37 0 0; 0 0 18 0 0 0 0 0 41 32 0 30 0 0 0 9 0 43 0 7 41 45 0 49 0; 0 0 0 0 37 0 28 0 0 47 41 28 0 0 37 20 0 0 22 0 27 0 0 0 0; 0 0 0 0 25 0 34 0 0 40 0 0 0 0 17 0 0 38 0 0 40 45 0 0 0; 0 0 0 0 0 50 44 0 0 47 34 27 0 30 10 0 0 0 0 29 29 11 0 0 0; 0 0 0 0 0 0 0 45 39 0 30 0 0 0 34 31 0 0 0 15 16 0 24 10 0; 0 0 0 0 0 0 0 0 0 32 31 21 0 20 35 0 0 0 0 0 0 0 0 13 0; 0 0 0 0 0 0 0 0 0 0 14 23 0 42 0 0 36 0 0 0 0 36 0 0 18; 0 0 0 0 0 0 0 0 0 5 40 17 11 7 7 0 0 26 23 14 23 35 32 7 0; 0 0 0 0 0 0 0 0 0 0 25 5 0 17 36 0 0 7 0 9 0 0 15 9 26; 0 0 0 0 0 0 0 0 0 0 0 0 0 0 14 0 12 0 47 0 43 0 0 0 0; 0 0 0 0 0 0 0 0 0 0 0 0 49 0 20 6 0 34 0 37 46 0 49 0 43; 0 0 0 0 0 0 0 0 0 0 0 0 0 33 23 0 0 0 5 34 26 0 0 0 34; 0 0 0 0 0 0 0 0 0 0 0 0 0 0 0 0 0 0 0 0 0 27 0 29 43; 0 0 0 0 0 0 0 0 0 0 0 0 0 0 0 0 0 0 0 17 5 0 0 30 0; 0 0 0 0 0 0 0 0 0 0 0 0 0 0 0 0 14 49 37 0 0 0 35 16 0; 0 0 0 0 0 0 0 0 0 0 0 0 0 0 0 0 0 15 0 0 0 7 0 0 0; 0 0 0 0 0 0 0 0 0 0 0 0 0 0 0 0 0 0 0 0 0 42 31 27 0; 0 0 0 0 0 0 0 0 0 0 0 0 0 0 0 0 0 0 0 22 0 0 32 49 0; 0 0 0 0 0 0 0 0 0 0 0 0 0 0 0 0 0 0 0 0 32 0 0 0 0; 0 0 0 0 0 0 0 0 0 0 0 0 0 0 0 0 0 0 0 0 0 0 50 0 28; 0 0 0 0 0 0 0 0 0 0 0 0 0 0 0 0 0 0 0 0 0 0 0 50 0; 0 0 0 0 0 0 0 0 0 0 0 0 0 0 0 0 0 0 0 0 0 0 0 0 0; 0 0 0 0 0 0 0 0 0 0 0 0 0 0 0 0 0 0 0 0 0 0 0 0 0; 0 0 0 0 0 0 0 0 0 0 0 0 0 0 0 0 0 0 0 0 0 0 0 0 0]
Q2 = [0.0 36.0 0.0 0.0 19.0 11.0 0.0 0.0 0.0 0.0 44.0 0.0 0.0 0.0 0.0 43.0 15.0 0.0 1.0 14.0 34.0 43.0 0.0 0.0 0.0; 0.0 0.0 45.0 0.0 0.0 0.0 0.0 0.0 5.0 12.0 0.0 9.0 0.0 0.0 0.0 46.0 0.0 4.0 0.0 44.0 3.0 3.0 0.0 1.0 0.0; 0.0 0.0 0.0 0.0 3.0 0.0 6.0 0.0 0.0 0.0 8.0 3.0 0.0 0.0 0.0 31.0 0.0 0.0 44.0 0.0 2.0 0.0 0.0 0.0 0.0; 0.0 0.0 0.0 0.0 11.0 0.0 1.0 0.0 0.0 6.0 0.0 0.0 0.0 0.0 36.0 0.0 0.0 9.0 0.0 0.0 9.0 3.0 0.0 0.0 0.0; 0.0 0.0 0.0 0.0 0.0 0.0 6.0 0.0 0.0 0.0 10.0 16.0 0.0 15.0 45.0 0.0 0.0 0.0 0.0 2.0 2.0 47.0 0.0 0.0 0.0; 0.0 0.0 0.0 0.0 0.0 0.0 0.0 0.0 3.0 0.0 13.0 0.0 0.0 0.0 15.0 10.0 0.0 0.0 0.0 41.0 45.0 0.0 45.0 44.0 0.0; 0.0 0.0 0.0 0.0 0.0 0.0 0.0 0.0 0.0 11.0 3.0 38.0 0.0 31.0 8.0 0.0 0.0 0.0 0.0 0.0 0.0 0.0 0.0 48.0 0.0; 0.0 0.0 0.0 0.0 0.0 0.0 0.0 0.0 0.0 0.0 37.0 47.0 0.0 1.0 0.0 0.0 1.0 0.0 0.0 0.0 0.0 12.0 0.0 0.0 35.0; 0.0 0.0 0.0 0.0 0.0 0.0 0.0 0.0 0.0 48.0 0.0 38.0 50.0 44.0 50.0 0.0 0.0 2.0 45.0 44.0 28.0 1.0 4.0 49.0 0.0; 0.0 0.0 0.0 0.0 0.0 0.0 0.0 0.0 0.0 0.0 1.0 48.0 0.0 36.0 7.0 0.0 0.0 47.0 0.0 41.0 0.0 0.0 49.0 41.0 6.0; 0.0 0.0 0.0 0.0 0.0 0.0 0.0 0.0 0.0 0.0 0.0 0.0 0.0 0.0 45.0 0.0 48.0 0.0 2.0 0.0 7.0 0.0 0.0 0.0 0.0; 0.0 0.0 0.0 0.0 0.0 0.0 0.0 0.0 0.0 0.0 0.0 0.0 0.0 0.0 41.0 49.0 0.0 13.0 0.0 6.0 4.0 0.0 0.0 0.0 6.0; 0.0 0.0 0.0 0.0 0.0 0.0 0.0 0.0 0.0 0.0 0.0 0.0 0.0 5.0 33.0 0.0 0.0 0.0 49.0 7.0 1.0 0.0 0.0 0.0 1.0; 0.0 0.0 0.0 0.0 0.0 0.0 0.0 0.0 0.0 0.0 0.0 0.0 0.0 0.0 0.0 0.0 0.0 0.0 0.0 0.0 0.0 5.0 0.0 14.0 7.0; 0.0 0.0 0.0 0.0 0.0 0.0 0.0 0.0 0.0 0.0 0.0 0.0 0.0 0.0 0.0 0.0 0.0 0.0 0.0 36.0 49.0 0.0 0.0 14.0 0.0; 0.0 0.0 0.0 0.0 0.0 0.0 0.0 0.0 0.0 0.0 0.0 0.0 0.0 0.0 0.0 0.0 43.0 1.0 0.0 0.0 0.0 0.0 3.0 47.0 0.0; 0.0 0.0 0.0 0.0 0.0 0.0 0.0 0.0 0.0 0.0 0.0 0.0 0.0 0.0 0.0 0.0 0.0 43.0 0.0 0.0 0.0 45.0 0.0 0.0 0.0; 0.0 0.0 0.0 0.0 0.0 0.0 0.0 0.0 0.0 0.0 0.0 0.0 0.0 0.0 0.0 0.0 0.0 0.0 0.0 0.0 0.0 4.0 16.0 0.0 0.0; 0.0 0.0 0.0 0.0 0.0 0.0 0.0 0.0 0.0 0.0 0.0 0.0 0.0 0.0 0.0 0.0 0.0 0.0 0.0 49.0 0.0 0.0 18.0 1.0 0.0; 0.0 0.0 0.0 0.0 0.0 0.0 0.0 0.0 0.0 0.0 0.0 0.0 0.0 0.0 0.0 0.0 0.0 0.0 0.0 0.0 14.0 0.0 0.0 0.0 0.0; 0.0 0.0 0.0 0.0 0.0 0.0 0.0 0.0 0.0 0.0 0.0 0.0 0.0 0.0 0.0 0.0 0.0 0.0 0.0 0.0 0.0 0.0 0.0 0.0 21.0; 0.0 0.0 0.0 0.0 0.0 0.0 0.0 0.0 0.0 0.0 0.0 0.0 0.0 0.0 0.0 0.0 0.0 0.0 0.0 0.0 0.0 0.0 0.0 0.0 0.0; 0.0 0.0 0.0 0.0 0.0 0.0 0.0 0.0 0.0 0.0 0.0 0.0 0.0 0.0 0.0 0.0 0.0 0.0 0.0 0.0 0.0 0.0 0.0 0.0 0.0; 0.0 0.0 0.0 0.0 0.0 0.0 0.0 0.0 0.0 0.0 0.0 0.0 0.0 0.0 0.0 0.0 0.0 0.0 0.0 0.0 0.0 0.0 0.0 0.0 0.0; 0.0 0.0 0.0 0.0 0.0 0.0 0.0 0.0 0.0 0.0 0.0 0.0 0.0 0.0 0.0 0.0 0.0 0.0 0.0 0.0 0.0 0.0 0.0 0.0 0.0]
Q3 = [0 10 71 71 24 15 71 71 71 71 15 71 71 71 71 17 6 71 10 16 4 5 32 71 71; 0 0 2 71 71 71 71 71 16 16 71 7 71 71 71 8 71 0 71 16 21 19 71 2 71; 0 0 0 71 1 71 57 71 71 9 10 66 71 71 0 17 71 71 4 71 57 71 71 71 71; 0 0 0 0 20 71 69 71 71 20 71 71 71 71 7 71 71 9 71 71 2 11 71 71 71; 0 0 0 0 0 16 17 71 71 2 20 24 71 21 16 71 71 71 71 57 71 7 71 71 71; 0 0 0 0 0 0 71 16 8 71 9 71 71 71 15 16 71 71 71 11 4 71 0 14 71; 0 0 0 0 0 0 0 71 71 23 60 12 71 16 11 71 71 71 71 71 71 71 71 2 71; 0 0 0 0 0 0 0 0 71 71 3 1 71 25 71 71 1 71 71 71 71 22 71 71 17; 0 0 0 0 0 0 0 0 0 13 17 11 1 4 13 71 71 50 0 0 20 23 1 12 71; 0 0 0 0 0 0 0 0 0 0 45 15 71 4 3 71 71 2 71 4 71 71 2 14 40; 0 0 0 0 0 0 0 0 0 0 0 71 71 71 12 71 5 71 4 71 0 71 71 71 71; 0 0 0 0 0 0 0 0 0 0 0 0 18 71 4 4 71 6 71 1 11 71 11 71 2; 0 0 0 0 0 0 0 0 0 0 0 0 0 21 11 71 71 71 6 24 58 71 71 71 55; 0 0 0 0 0 0 0 0 0 0 0 0 0 0 71 71 71 71 71 71 71 65 71 6 17; 0 0 0 0 0 0 0 0 0 0 0 0 0 0 0 71 71 71 71 2 0 71 71 20 71; 0 0 0 0 0 0 0 0 0 0 0 0 0 0 0 0 10 2 31 71 71 71 5 4 71; 0 0 0 0 0 0 0 0 0 0 0 0 0 0 0 0 0 9 71 71 71 13 71 71 71; 0 0 0 0 0 0 0 0 0 0 0 0 0 0 0 0 0 0 71 71 71 19 2 52 71; 0 0 0 0 0 0 0 0 0 0 0 0 0 0 0 0 0 0 0 0 71 71 2 5 71; 0 0 0 0 0 0 0 0 0 0 0 0 0 0 0 0 0 0 0 0 23 71 71 71 71; 0 0 0 0 0 0 0 0 0 0 0 0 0 0 0 0 0 0 0 0 0 71 14 71 21; 0 0 0 0 0 0 0 0 0 0 0 0 0 0 0 0 0 0 0 0 0 0 71 0 71; 0 0 0 0 0 0 0 0 0 0 0 0 0 0 0 0 0 0 0 0 0 0 0 71 71; 0 0 0 0 0 0 0 0 0 0 0 0 0 0 0 0 0 0 0 0 0 0 0 0 71; 0 0 0 0 0 0 0 0 0 0 0 0 0 0 0 0 0 0 0 0 0 0 0 0 0]
